p cnf 203 843
-1 -33 0
-2 -33 0
1 2 33 0
1 2 -34 0
-1 -2 -34 0
-1 2 34 0
1 -2 34 0
33 -35 0
-3 -35 0
3 -33 35 0
3 -33 -36 0
-3 33 -36 0
3 33 36 0
-3 -33 36 0
35 -37 0
-4 -37 0
4 -35 37 0
4 -35 -38 0
-4 35 -38 0
4 35 38 0
-4 -35 38 0
37 -39 0
-5 -39 0
5 -37 39 0
5 -37 -40 0
-5 37 -40 0
5 37 40 0
-5 -37 40 0
39 -41 0
-6 -41 0
6 -39 41 0
6 -39 -42 0
-6 39 -42 0
6 39 42 0
-6 -39 42 0
41 -43 0
-7 -43 0
7 -41 43 0
7 -41 -44 0
-7 41 -44 0
7 41 44 0
-7 -41 44 0
43 -45 0
-8 -45 0
8 -43 45 0
8 -43 -46 0
-8 43 -46 0
8 43 46 0
-8 -43 46 0
3 -47 0
1 -47 0
-1 -3 47 0
-1 -3 -48 0
1 3 -48 0
1 -3 48 0
-1 3 48 0
-2 -4 49 0
-4 -47 49 0
-2 -47 49 0
2 4 -49 0
4 47 -49 0
2 47 -49 0
4 -49 -50 0
2 -49 -50 0
47 -49 -50 0
-4 49 50 0
-2 49 50 0
-47 49 50 0
-2 -4 -47 50 0
2 4 47 -50 0
-3 -5 51 0
-5 -49 51 0
-3 -49 51 0
3 5 -51 0
5 49 -51 0
3 49 -51 0
5 -51 -52 0
3 -51 -52 0
49 -51 -52 0
-5 51 52 0
-3 51 52 0
-49 51 52 0
-3 -5 -49 52 0
3 5 49 -52 0
-4 -6 53 0
-6 -51 53 0
-4 -51 53 0
4 6 -53 0
6 51 -53 0
4 51 -53 0
6 -53 -54 0
4 -53 -54 0
51 -53 -54 0
-6 53 54 0
-4 53 54 0
-51 53 54 0
-4 -6 -51 54 0
4 6 51 -54 0
-5 -7 55 0
-7 -53 55 0
-5 -53 55 0
5 7 -55 0
7 53 -55 0
5 53 -55 0
7 -55 -56 0
5 -55 -56 0
53 -55 -56 0
-7 55 56 0
-5 55 56 0
-53 55 56 0
-5 -7 -53 56 0
5 7 53 -56 0
-6 -8 57 0
-8 -55 57 0
-6 -55 57 0
6 8 -57 0
8 55 -57 0
6 55 -57 0
8 -57 -58 0
6 -57 -58 0
55 -57 -58 0
-8 57 58 0
-6 57 58 0
-55 57 58 0
-6 -8 -55 58 0
6 8 55 -58 0
7 -59 0
57 -59 0
-7 -57 59 0
-7 -57 -60 0
7 57 -60 0
-7 57 60 0
7 -57 60 0
8 -61 0
59 -61 0
-8 -59 61 0
-8 -59 -62 0
8 59 -62 0
-8 59 62 0
8 -59 62 0
52 -63 0
1 -63 0
-1 -52 63 0
-1 -52 -64 0
1 52 -64 0
1 -52 64 0
-1 52 64 0
-2 -54 65 0
-54 -63 65 0
-2 -63 65 0
2 54 -65 0
54 63 -65 0
2 63 -65 0
54 -65 -66 0
2 -65 -66 0
63 -65 -66 0
-54 65 66 0
-2 65 66 0
-63 65 66 0
-2 -54 -63 66 0
2 54 63 -66 0
-3 -56 67 0
-56 -65 67 0
-3 -65 67 0
3 56 -67 0
56 65 -67 0
3 65 -67 0
56 -67 -68 0
3 -67 -68 0
65 -67 -68 0
-56 67 68 0
-3 67 68 0
-65 67 68 0
-3 -56 -65 68 0
3 56 65 -68 0
-4 -58 69 0
-58 -67 69 0
-4 -67 69 0
4 58 -69 0
58 67 -69 0
4 67 -69 0
58 -69 -70 0
4 -69 -70 0
67 -69 -70 0
-58 69 70 0
-4 69 70 0
-67 69 70 0
-4 -58 -67 70 0
4 58 67 -70 0
-5 -60 71 0
-60 -69 71 0
-5 -69 71 0
5 60 -71 0
60 69 -71 0
5 69 -71 0
60 -71 -72 0
5 -71 -72 0
69 -71 -72 0
-60 71 72 0
-5 71 72 0
-69 71 72 0
-5 -60 -69 72 0
5 60 69 -72 0
-6 -62 73 0
-62 -71 73 0
-6 -71 73 0
6 62 -73 0
62 71 -73 0
6 71 -73 0
62 -73 -74 0
6 -73 -74 0
71 -73 -74 0
-62 73 74 0
-6 73 74 0
-71 73 74 0
-6 -62 -71 74 0
6 62 71 -74 0
-7 -61 75 0
-61 -73 75 0
-7 -73 75 0
7 61 -75 0
61 73 -75 0
7 73 -75 0
61 -75 -76 0
7 -75 -76 0
73 -75 -76 0
-61 75 76 0
-7 75 76 0
-73 75 76 0
-7 -61 -73 76 0
7 61 73 -76 0
8 -77 0
75 -77 0
-8 -75 77 0
-8 -75 -78 0
8 75 -78 0
-8 75 78 0
8 -75 78 0
-1 -79 0
-2 -79 0
1 2 79 0
1 2 -80 0
-1 -2 -80 0
-1 2 80 0
1 -2 80 0
79 -81 0
-48 -81 0
48 -79 81 0
48 -79 -82 0
-48 79 -82 0
48 79 82 0
-48 -79 82 0
81 -83 0
-50 -83 0
50 -81 83 0
50 -81 -84 0
-50 81 -84 0
50 81 84 0
-50 -81 84 0
83 -85 0
-64 -85 0
64 -83 85 0
64 -83 -86 0
-64 83 -86 0
64 83 86 0
-64 -83 86 0
85 -87 0
-66 -87 0
66 -85 87 0
66 -85 -88 0
-66 85 -88 0
66 85 88 0
-66 -85 88 0
87 -89 0
-68 -89 0
68 -87 89 0
68 -87 -90 0
-68 87 -90 0
68 87 90 0
-68 -87 90 0
89 -91 0
-70 -91 0
70 -89 91 0
70 -89 -92 0
-70 89 -92 0
70 89 92 0
-70 -89 92 0
91 -93 0
-72 -93 0
72 -91 93 0
72 -91 -94 0
-72 91 -94 0
72 91 94 0
-72 -91 94 0
93 -95 0
-74 -95 0
74 -93 95 0
74 -93 -96 0
-74 93 -96 0
74 93 96 0
-74 -93 96 0
95 -97 0
-76 -97 0
76 -95 97 0
76 -95 -98 0
-76 95 -98 0
76 95 98 0
-76 -95 98 0
97 -99 0
-78 -99 0
78 -97 99 0
78 -97 -100 0
-78 97 -100 0
78 97 100 0
-78 -97 100 0
99 -101 0
-77 -101 0
77 -99 101 0
77 -99 -102 0
-77 99 -102 0
77 99 102 0
-77 -99 102 0
-9 -103 0
-10 -103 0
9 10 103 0
9 10 -104 0
-9 -10 -104 0
-9 10 104 0
9 -10 104 0
103 -105 0
-11 -105 0
11 -103 105 0
11 -103 -106 0
-11 103 -106 0
11 103 106 0
-11 -103 106 0
105 -107 0
-12 -107 0
12 -105 107 0
12 -105 -108 0
-12 105 -108 0
12 105 108 0
-12 -105 108 0
107 -109 0
-13 -109 0
13 -107 109 0
13 -107 -110 0
-13 107 -110 0
13 107 110 0
-13 -107 110 0
109 -111 0
-14 -111 0
14 -109 111 0
14 -109 -112 0
-14 109 -112 0
14 109 112 0
-14 -109 112 0
111 -113 0
-15 -113 0
15 -111 113 0
15 -111 -114 0
-15 111 -114 0
15 111 114 0
-15 -111 114 0
113 -115 0
-16 -115 0
16 -113 115 0
16 -113 -116 0
-16 113 -116 0
16 113 116 0
-16 -113 116 0
11 -117 0
9 -117 0
-9 -11 117 0
-9 -11 -118 0
9 11 -118 0
9 -11 118 0
-9 11 118 0
-10 -12 119 0
-12 -117 119 0
-10 -117 119 0
10 12 -119 0
12 117 -119 0
10 117 -119 0
12 -119 -120 0
10 -119 -120 0
117 -119 -120 0
-12 119 120 0
-10 119 120 0
-117 119 120 0
-10 -12 -117 120 0
10 12 117 -120 0
-11 -13 121 0
-13 -119 121 0
-11 -119 121 0
11 13 -121 0
13 119 -121 0
11 119 -121 0
13 -121 -122 0
11 -121 -122 0
119 -121 -122 0
-13 121 122 0
-11 121 122 0
-119 121 122 0
-11 -13 -119 122 0
11 13 119 -122 0
-12 -14 123 0
-14 -121 123 0
-12 -121 123 0
12 14 -123 0
14 121 -123 0
12 121 -123 0
14 -123 -124 0
12 -123 -124 0
121 -123 -124 0
-14 123 124 0
-12 123 124 0
-121 123 124 0
-12 -14 -121 124 0
12 14 121 -124 0
-13 -15 125 0
-15 -123 125 0
-13 -123 125 0
13 15 -125 0
15 123 -125 0
13 123 -125 0
15 -125 -126 0
13 -125 -126 0
123 -125 -126 0
-15 125 126 0
-13 125 126 0
-123 125 126 0
-13 -15 -123 126 0
13 15 123 -126 0
-14 -16 127 0
-16 -125 127 0
-14 -125 127 0
14 16 -127 0
16 125 -127 0
14 125 -127 0
16 -127 -128 0
14 -127 -128 0
125 -127 -128 0
-16 127 128 0
-14 127 128 0
-125 127 128 0
-14 -16 -125 128 0
14 16 125 -128 0
15 -129 0
127 -129 0
-15 -127 129 0
-15 -127 -130 0
15 127 -130 0
-15 127 130 0
15 -127 130 0
16 -131 0
129 -131 0
-16 -129 131 0
-16 -129 -132 0
16 129 -132 0
-16 129 132 0
16 -129 132 0
124 -133 0
9 -133 0
-9 -124 133 0
-9 -124 -134 0
9 124 -134 0
9 -124 134 0
-9 124 134 0
-10 -126 135 0
-126 -133 135 0
-10 -133 135 0
10 126 -135 0
126 133 -135 0
10 133 -135 0
126 -135 -136 0
10 -135 -136 0
133 -135 -136 0
-126 135 136 0
-10 135 136 0
-133 135 136 0
-10 -126 -133 136 0
10 126 133 -136 0
-11 -128 137 0
-128 -135 137 0
-11 -135 137 0
11 128 -137 0
128 135 -137 0
11 135 -137 0
128 -137 -138 0
11 -137 -138 0
135 -137 -138 0
-128 137 138 0
-11 137 138 0
-135 137 138 0
-11 -128 -135 138 0
11 128 135 -138 0
-12 -130 139 0
-130 -137 139 0
-12 -137 139 0
12 130 -139 0
130 137 -139 0
12 137 -139 0
130 -139 -140 0
12 -139 -140 0
137 -139 -140 0
-130 139 140 0
-12 139 140 0
-137 139 140 0
-12 -130 -137 140 0
12 130 137 -140 0
-13 -132 141 0
-132 -139 141 0
-13 -139 141 0
13 132 -141 0
132 139 -141 0
13 139 -141 0
132 -141 -142 0
13 -141 -142 0
139 -141 -142 0
-132 141 142 0
-13 141 142 0
-139 141 142 0
-13 -132 -139 142 0
13 132 139 -142 0
-14 -131 143 0
-131 -141 143 0
-14 -141 143 0
14 131 -143 0
131 141 -143 0
14 141 -143 0
131 -143 -144 0
14 -143 -144 0
141 -143 -144 0
-131 143 144 0
-14 143 144 0
-141 143 144 0
-14 -131 -141 144 0
14 131 141 -144 0
15 -145 0
143 -145 0
-15 -143 145 0
-15 -143 -146 0
15 143 -146 0
-15 143 146 0
15 -143 146 0
16 -147 0
145 -147 0
-16 -145 147 0
-16 -145 -148 0
16 145 -148 0
-16 145 148 0
16 -145 148 0
-9 -149 0
-10 -149 0
9 10 149 0
9 10 -150 0
-9 -10 -150 0
-9 10 150 0
9 -10 150 0
149 -151 0
-118 -151 0
118 -149 151 0
118 -149 -152 0
-118 149 -152 0
118 149 152 0
-118 -149 152 0
151 -153 0
-120 -153 0
120 -151 153 0
120 -151 -154 0
-120 151 -154 0
120 151 154 0
-120 -151 154 0
153 -155 0
-122 -155 0
122 -153 155 0
122 -153 -156 0
-122 153 -156 0
122 153 156 0
-122 -153 156 0
155 -157 0
-134 -157 0
134 -155 157 0
134 -155 -158 0
-134 155 -158 0
134 155 158 0
-134 -155 158 0
157 -159 0
-136 -159 0
136 -157 159 0
136 -157 -160 0
-136 157 -160 0
136 157 160 0
-136 -157 160 0
159 -161 0
-138 -161 0
138 -159 161 0
138 -159 -162 0
-138 159 -162 0
138 159 162 0
-138 -159 162 0
161 -163 0
-140 -163 0
140 -161 163 0
140 -161 -164 0
-140 161 -164 0
140 161 164 0
-140 -161 164 0
163 -165 0
-142 -165 0
142 -163 165 0
142 -163 -166 0
-142 163 -166 0
142 163 166 0
-142 -163 166 0
165 -167 0
-144 -167 0
144 -165 167 0
144 -165 -168 0
-144 165 -168 0
144 165 168 0
-144 -165 168 0
167 -169 0
-146 -169 0
146 -167 169 0
146 -167 -170 0
-146 167 -170 0
146 167 170 0
-146 -167 170 0
169 -171 0
-148 -171 0
148 -169 171 0
148 -169 -172 0
-148 169 -172 0
148 169 172 0
-148 -169 172 0
171 -173 0
-147 -173 0
147 -171 173 0
147 -171 -174 0
-147 171 -174 0
147 171 174 0
-147 -171 174 0
1 -175 0
9 -175 0
-1 -9 175 0
-1 -9 -176 0
1 9 -176 0
-1 9 176 0
1 -9 176 0
-2 -10 177 0
-2 -175 177 0
-10 -175 177 0
2 10 -177 0
2 175 -177 0
10 175 -177 0
2 -177 -178 0
10 -177 -178 0
175 -177 -178 0
-2 177 178 0
-10 177 178 0
-175 177 178 0
-2 -10 -175 178 0
2 10 175 -178 0
-48 -118 179 0
-48 -177 179 0
-118 -177 179 0
48 118 -179 0
48 177 -179 0
118 177 -179 0
48 -179 -180 0
118 -179 -180 0
177 -179 -180 0
-48 179 180 0
-118 179 180 0
-177 179 180 0
-48 -118 -177 180 0
48 118 177 -180 0
-50 -120 181 0
-50 -179 181 0
-120 -179 181 0
50 120 -181 0
50 179 -181 0
120 179 -181 0
50 -181 -182 0
120 -181 -182 0
179 -181 -182 0
-50 181 182 0
-120 181 182 0
-179 181 182 0
-50 -120 -179 182 0
50 120 179 -182 0
-64 -122 183 0
-64 -181 183 0
-122 -181 183 0
64 122 -183 0
64 181 -183 0
122 181 -183 0
64 -183 -184 0
122 -183 -184 0
181 -183 -184 0
-64 183 184 0
-122 183 184 0
-181 183 184 0
-64 -122 -181 184 0
64 122 181 -184 0
-66 -134 185 0
-66 -183 185 0
-134 -183 185 0
66 134 -185 0
66 183 -185 0
134 183 -185 0
66 -185 -186 0
134 -185 -186 0
183 -185 -186 0
-66 185 186 0
-134 185 186 0
-183 185 186 0
-66 -134 -183 186 0
66 134 183 -186 0
-68 -136 187 0
-68 -185 187 0
-136 -185 187 0
68 136 -187 0
68 185 -187 0
136 185 -187 0
68 -187 -188 0
136 -187 -188 0
185 -187 -188 0
-68 187 188 0
-136 187 188 0
-185 187 188 0
-68 -136 -185 188 0
68 136 185 -188 0
-70 -138 189 0
-70 -187 189 0
-138 -187 189 0
70 138 -189 0
70 187 -189 0
138 187 -189 0
70 -189 -190 0
138 -189 -190 0
187 -189 -190 0
-70 189 190 0
-138 189 190 0
-187 189 190 0
-70 -138 -187 190 0
70 138 187 -190 0
-72 -140 191 0
-72 -189 191 0
-140 -189 191 0
72 140 -191 0
72 189 -191 0
140 189 -191 0
72 -191 -192 0
140 -191 -192 0
189 -191 -192 0
-72 191 192 0
-140 191 192 0
-189 191 192 0
-72 -140 -189 192 0
72 140 189 -192 0
-74 -142 193 0
-74 -191 193 0
-142 -191 193 0
74 142 -193 0
74 191 -193 0
142 191 -193 0
74 -193 -194 0
142 -193 -194 0
191 -193 -194 0
-74 193 194 0
-142 193 194 0
-191 193 194 0
-74 -142 -191 194 0
74 142 191 -194 0
-76 -144 195 0
-76 -193 195 0
-144 -193 195 0
76 144 -195 0
76 193 -195 0
144 193 -195 0
76 -195 -196 0
144 -195 -196 0
193 -195 -196 0
-76 195 196 0
-144 195 196 0
-193 195 196 0
-76 -144 -193 196 0
76 144 193 -196 0
-78 -146 197 0
-78 -195 197 0
-146 -195 197 0
78 146 -197 0
78 195 -197 0
146 195 -197 0
78 -197 -198 0
146 -197 -198 0
195 -197 -198 0
-78 197 198 0
-146 197 198 0
-195 197 198 0
-78 -146 -195 198 0
78 146 195 -198 0
-77 -148 199 0
-77 -197 199 0
-148 -197 199 0
77 148 -199 0
77 197 -199 0
148 197 -199 0
77 -199 -200 0
148 -199 -200 0
197 -199 -200 0
-77 199 200 0
-148 199 200 0
-197 199 200 0
-77 -148 -197 200 0
77 148 197 -200 0
147 -201 0
199 -201 0
-147 -199 201 0
-147 -199 -202 0
147 199 -202 0
-147 199 202 0
147 -199 202 0
-176 -203 0
178 -203 0
180 -203 0
-182 -203 0
184 -203 0
186 -203 0
-188 -203 0
190 -203 0
-192 -203 0
-194 -203 0
-196 -203 0
-198 -203 0
-200 -203 0
-201 -203 0
-202 -203 0
176 -178 -180 182 -184 -186 188 -190 192 194 196 198 200 201 202 203 0
203 0
c main::$tmp::return_value_nondet_char!0@1#1 17 18 19 20 21 22 23 24
c symex::nondet1 9 10 11 12 13 14 15 16
c symex::nondet0 1 2 3 4 5 6 7 8
c main::$tmp::return_value_nondet_char$0!0@1#2 9 10 11 12 13 14 15 16
c __CPROVER_rounding_mode!0#1 FALSE FALSE FALSE FALSE FALSE FALSE FALSE FALSE FALSE FALSE FALSE FALSE FALSE FALSE FALSE FALSE FALSE FALSE FALSE FALSE FALSE FALSE FALSE FALSE FALSE FALSE FALSE FALSE FALSE FALSE FALSE FALSE
c main::$tmp::return_value_nondet_char$0!0@1#1 25 26 27 28 29 30 31 32
c __CPROVER_memory_leak#1 FALSE FALSE FALSE FALSE FALSE FALSE FALSE FALSE FALSE FALSE FALSE FALSE FALSE FALSE FALSE FALSE FALSE FALSE FALSE FALSE FALSE FALSE FALSE FALSE FALSE FALSE FALSE FALSE FALSE FALSE FALSE FALSE FALSE FALSE FALSE FALSE FALSE FALSE FALSE FALSE FALSE FALSE FALSE FALSE FALSE FALSE FALSE FALSE FALSE FALSE FALSE FALSE FALSE FALSE FALSE FALSE FALSE FALSE FALSE FALSE FALSE FALSE FALSE FALSE
c __CPROVER_max_malloc_size#1 FALSE FALSE FALSE FALSE FALSE FALSE FALSE FALSE FALSE FALSE FALSE FALSE FALSE FALSE FALSE FALSE FALSE FALSE FALSE FALSE FALSE FALSE FALSE FALSE FALSE FALSE FALSE FALSE FALSE FALSE FALSE FALSE FALSE FALSE FALSE FALSE FALSE FALSE FALSE FALSE FALSE FALSE FALSE FALSE FALSE FALSE FALSE FALSE FALSE FALSE FALSE FALSE FALSE FALSE FALSE TRUE FALSE FALSE FALSE FALSE FALSE FALSE FALSE FALSE
c __CPROVER_deallocated#1 FALSE FALSE FALSE FALSE FALSE FALSE FALSE FALSE FALSE FALSE FALSE FALSE FALSE FALSE FALSE FALSE FALSE FALSE FALSE FALSE FALSE FALSE FALSE FALSE FALSE FALSE FALSE FALSE FALSE FALSE FALSE FALSE FALSE FALSE FALSE FALSE FALSE FALSE FALSE FALSE FALSE FALSE FALSE FALSE FALSE FALSE FALSE FALSE FALSE FALSE FALSE FALSE FALSE FALSE FALSE FALSE FALSE FALSE FALSE FALSE FALSE FALSE FALSE FALSE
c main::$tmp::return_value_nondet_char!0@1#2 1 2 3 4 5 6 7 8
c __CPROVER_dead_object#1 FALSE FALSE FALSE FALSE FALSE FALSE FALSE FALSE FALSE FALSE FALSE FALSE FALSE FALSE FALSE FALSE FALSE FALSE FALSE FALSE FALSE FALSE FALSE FALSE FALSE FALSE FALSE FALSE FALSE FALSE FALSE FALSE FALSE FALSE FALSE FALSE FALSE FALSE FALSE FALSE FALSE FALSE FALSE FALSE FALSE FALSE FALSE FALSE FALSE FALSE FALSE FALSE FALSE FALSE FALSE FALSE FALSE FALSE FALSE FALSE FALSE FALSE FALSE FALSE
